
Gurobi 8.1.1 (linux64, Python) logging started Mon Sep 23 14:34:06 2019


--------------------------------------------
Warning: your license will expire in 3 days
--------------------------------------------

Academic license - for non-commercial use only

Gurobi 8.1.1 (linux64, Python) logging started Mon Sep 23 14:34:15 2019


--------------------------------------------
Warning: your license will expire in 3 days
--------------------------------------------

Academic license - for non-commercial use only
Optimize a model with 25 rows, 72 columns and 216 nonzeros
Coefficient statistics:
  Matrix range     [1e+00, 2e+01]
  Objective range  [1e+00, 2e+01]
  Bounds range     [0e+00, 0e+00]
  RHS range        [1e-01, 1e-01]
Presolve removed 4 rows and 2 columns
Presolve time: 0.00s
Presolved: 21 rows, 70 columns, 200 nonzeros

Iteration    Objective       Primal Inf.    Dual Inf.      Time
       0    1.1111111e-01   1.304597e+00   0.000000e+00      0s
      24    6.6455026e-01   0.000000e+00   0.000000e+00      0s

Solved in 24 iterations and 0.00 seconds
Optimal objective  6.645502646e-01
Optimize a model with 25 rows, 72 columns and 216 nonzeros
Coefficient statistics:
  Matrix range     [1e+00, 2e+01]
  Objective range  [1e+00, 2e+01]
  Bounds range     [0e+00, 0e+00]
  RHS range        [1e-01, 1e-01]
Presolve removed 4 rows and 2 columns
Presolve time: 0.00s
Presolved: 21 rows, 70 columns, 200 nonzeros

Iteration    Objective       Primal Inf.    Dual Inf.      Time
       0    9.2604741e+00   3.662042e+00   0.000000e+00      0s
      44    1.0833333e+00   0.000000e+00   0.000000e+00      0s

Solved in 44 iterations and 0.00 seconds
Optimal objective  1.083333333e+00
